20
10	266	286	78	79
3	230	216	49	54
11	117	228	8	28
26	206	61	66	45
27	147	24	52	0
1	43	277	67	73
18	93	262	70	68
28	72	115	81	1
4	290	25	21	97
3	94	113	64	12
16	177	197	20	97
19	148	100	47	60
20	140	16	81	77
27	161	239	91	16
25	155	235	69	90
22	270	64	29	27
7	4	119	51	82
9	26	269	25	55
13	148	158	47	47
7	55	113	17	34
